NAME: ../File/prFile/tspFile/tsp_file22.tsp
COMMENT: TSP file generated by Python
TYPE: TSP
DIMENSION: 30
EDGE_WEIGHT_TYPE: EUC_2D
NODE_COORD_SECTION
1 43 72
2 16 33
3 1 82
4 14 39
5 70 31
6 72 18
7 54 1
8 30 36
9 33 6
10 69 54
11 54 74
12 87 10
13 40 44
14 96 46
15 38 43
16 89 10
17 45 39
18 45 44
19 6 87
20 89 24
21 84 29
22 81 33
23 1 8
24 34 83
25 21 85
26 81 38
27 87 65
28 82 13
29 40 27
30 68 54
EOF
